67
1 0 3
2 0 10
2 1 13
3 0 3
3 1 7
3 2 6
4 0 6
4 1 5
4 2 9
4 3 4
5 0 12
5 1 5
5 2 10
5 3 13
5 4 12
6 0 13
6 1 11
6 2 5
6 3 9
6 4 10
6 5 5
7 0 3
7 1 4
7 2 2
7 3 12
7 4 8
7 5 7
7 6 5
8 0 8
8 1 4
8 2 13
8 3 7
8 4 5
8 5 12
8 6 9
8 7 12
9 0 1
9 1 6
9 2 9
9 3 5
9 4 10
9 5 4
9 6 8
9 7 13
9 8 9
10 0 4
10 1 5
10 2 10
10 3 13
10 4 4
10 5 7
10 6 13
10 7 8
10 8 1
10 9 4
11 0 11
11 1 1
11 2 3
11 3 12
11 4 11
11 5 11
11 6 9
11 7 13
11 8 13
11 9 3
11 10 6
12 0 5
12 1 7
12 2 5
12 3 2
12 4 3
12 5 1
12 6 4
12 7 1
12 8 8
12 9 13
12 10 1
12 11 12
13 0 4
13 1 5
13 2 7
13 3 7
13 4 7
13 5 2
13 6 12
13 7 2
13 8 6
13 9 1
13 10 4
13 11 5
13 12 5
14 0 10
14 1 7
14 2 1
14 3 1
14 4 5
14 5 2
14 6 1
14 7 11
14 8 4
14 9 5
14 10 9
14 11 5
14 12 5
14 13 2
15 0 4
15 1 13
15 2 10
15 3 8
15 4 12
15 5 11
15 6 8
15 7 4
15 8 7
15 9 9
15 10 1
15 11 11
15 12 2
15 13 12
15 14 12
16 0 5
16 1 11
16 2 7
16 3 9
16 4 9
16 5 12
16 6 1
16 7 9
16 8 13
16 9 1
16 10 11
16 11 2
16 12 9
16 13 5
16 14 3
16 15 12
17 0 4
17 1 1
17 2 4
17 3 6
17 4 3
17 5 12
17 6 4
17 7 8
17 8 13
17 9 9
17 10 11
17 11 3
17 12 1
17 13 10
17 14 8
17 15 5
17 16 8
18 0 3
18 1 7
18 2 10
18 3 12
18 4 11
18 5 9
18 6 1
18 7 4
18 8 4
18 9 7
18 10 8
18 11 10
18 12 12
18 13 4
18 14 9
18 15 3
18 16 12
18 17 9
19 0 12
19 1 11
19 2 5
19 3 10
19 4 5
19 5 7
19 6 7
19 7 13
19 8 11
19 9 4
19 10 9
19 11 5
19 12 9
19 13 11
19 14 1
19 15 10
19 16 2
19 17 9
19 18 7
20 0 4
20 1 8
20 2 6
20 3 5
20 4 3
20 5 1
20 6 3
20 7 8
20 8 11
20 9 6
20 10 8
20 11 9
20 12 3
20 13 9
20 14 4
20 15 2
20 16 7
20 17 5
20 18 5
20 19 13
21 0 13
21 1 12
21 2 9
21 3 6
21 4 10
21 5 1
21 6 7
21 7 12
21 8 5
21 9 7
21 10 2
21 11 3
21 12 12
21 13 10
21 14 5
21 15 7
21 16 11
21 17 9
21 18 5
21 19 1
21 20 5
22 0 9
22 1 8
22 2 10
22 3 3
22 4 5
22 5 6
22 6 1
22 7 7
22 8 12
22 9 7
22 10 1
22 11 1
22 12 5
22 13 4
22 14 6
22 15 5
22 16 2
22 17 11
22 18 4
22 19 6
22 20 6
22 21 6
23 0 12
23 1 6
23 2 2
23 3 11
23 4 10
23 5 1
23 6 6
23 7 8
23 8 4
23 9 7
23 10 7
23 11 9
23 12 13
23 13 3
23 14 1
23 15 8
23 16 9
23 17 4
23 18 11
23 19 6
23 20 12
23 21 3
23 22 10
24 0 8
24 1 4
24 2 7
24 3 8
24 4 6
24 5 8
24 6 1
24 7 6
24 8 6
24 9 2
24 10 7
24 11 6
24 12 8
24 13 13
24 14 8
24 15 4
24 16 2
24 17 2
24 18 4
24 19 10
24 20 11
24 21 10
24 22 2
24 23 13
25 0 8
25 1 1
25 2 10
25 3 13
25 4 3
25 5 3
25 6 11
25 7 9
25 8 3
25 9 7
25 10 11
25 11 8
25 12 1
25 13 6
25 14 5
25 15 11
25 16 13
25 17 11
25 18 9
25 19 12
25 20 12
25 21 8
25 22 1
25 23 11
25 24 7
26 0 9
26 1 7
26 2 2
26 3 4
26 4 13
26 5 10
26 6 3
26 7 1
26 8 5
26 9 6
26 10 8
26 11 8
26 12 10
26 13 4
26 14 8
26 15 2
26 16 10
26 17 6
26 18 2
26 19 8
26 20 5
26 21 7
26 22 11
26 23 10
26 24 12
26 25 3
27 0 10
27 1 2
27 2 2
27 3 11
27 4 12
27 5 1
27 6 10
27 7 9
27 8 13
27 9 3
27 10 4
27 11 11
27 12 10
27 13 4
27 14 8
27 15 10
27 16 3
27 17 10
27 18 10
27 19 3
27 20 13
27 21 7
27 22 8
27 23 11
27 24 3
27 25 4
27 26 2
28 0 11
28 1 10
28 2 7
28 3 12
28 4 5
28 5 10
28 6 6
28 7 11
28 8 5
28 9 1
28 10 5
28 11 9
28 12 4
28 13 10
28 14 11
28 15 9
28 16 10
28 17 5
28 18 3
28 19 5
28 20 6
28 21 9
28 22 10
28 23 11
28 24 7
28 25 2
28 26 3
28 27 1
29 0 6
29 1 6
29 2 10
29 3 7
29 4 6
29 5 9
29 6 12
29 7 10
29 8 6
29 9 13
29 10 2
29 11 11
29 12 2
29 13 12
29 14 12
29 15 8
29 16 5
29 17 6
29 18 4
29 19 1
29 20 11
29 21 2
29 22 9
29 23 6
29 24 3
29 25 4
29 26 2
29 27 13
29 28 5
30 0 5
30 1 1
30 2 13
30 3 10
30 4 5
30 5 10
30 6 7
30 7 1
30 8 10
30 9 9
30 10 7
30 11 6
30 12 11
30 13 13
30 14 3
30 15 7
30 16 1
30 17 9
30 18 2
30 19 13
30 20 3
30 21 2
30 22 11
30 23 7
30 24 1
30 25 2
30 26 5
30 27 3
30 28 8
30 29 6
31 0 7
31 1 1
31 2 2
31 3 8
31 4 9
31 5 4
31 6 8
31 7 8
31 8 6
31 9 4
31 10 5
31 11 6
31 12 2
31 13 7
31 14 2
31 15 4
31 16 13
31 17 1
31 18 4
31 19 6
31 20 11
31 21 11
31 22 12
31 23 8
31 24 2
31 25 11
31 26 13
31 27 13
31 28 10
31 29 10
31 30 11
32 0 9
32 1 6
32 2 6
32 3 13
32 4 8
32 5 7
32 6 12
32 7 8
32 8 9
32 9 8
32 10 13
32 11 9
32 12 4
32 13 8
32 14 11
32 15 4
32 16 1
32 17 2
32 18 6
32 19 4
32 20 8
32 21 10
32 22 11
32 23 8
32 24 6
32 25 13
32 26 13
32 27 2
32 28 5
32 29 3
32 30 6
32 31 6
33 0 13
33 1 1
33 2 6
33 3 5
33 4 8
33 5 2
33 6 7
33 7 9
33 8 4
33 9 9
33 10 2
33 11 2
33 12 11
33 13 9
33 14 8
33 15 1
33 16 7
33 17 10
33 18 3
33 19 12
33 20 5
33 21 10
33 22 8
33 23 2
33 24 5
33 25 13
33 26 3
33 27 9
33 28 6
33 29 4
33 30 1
33 31 7
33 32 11
34 0 5
34 1 11
34 2 1
34 3 4
34 4 6
34 5 2
34 6 5
34 7 10
34 8 8
34 9 5
34 10 4
34 11 5
34 12 9
34 13 13
34 14 10
34 15 10
34 16 12
34 17 6
34 18 3
34 19 8
34 20 10
34 21 12
34 22 5
34 23 7
34 24 10
34 25 9
34 26 12
34 27 13
34 28 9
34 29 2
34 30 8
34 31 13
34 32 11
34 33 2
35 0 11
35 1 2
35 2 11
35 3 3
35 4 1
35 5 1
35 6 10
35 7 2
35 8 11
35 9 2
35 10 6
35 11 7
35 12 3
35 13 3
35 14 10
35 15 13
35 16 5
35 17 2
35 18 3
35 19 3
35 20 6
35 21 1
35 22 6
35 23 7
35 24 8
35 25 3
35 26 13
35 27 2
35 28 11
35 29 11
35 30 6
35 31 13
35 32 10
35 33 3
35 34 11
36 0 4
36 1 4
36 2 8
36 3 10
36 4 7
36 5 9
36 6 7
36 7 3
36 8 8
36 9 11
36 10 6
36 11 6
36 12 3
36 13 11
36 14 8
36 15 7
36 16 6
36 17 6
36 18 9
36 19 5
36 20 5
36 21 4
36 22 10
36 23 4
36 24 2
36 25 13
36 26 12
36 27 1
36 28 13
36 29 2
36 30 1
36 31 6
36 32 4
36 33 9
36 34 7
36 35 7
37 0 10
37 1 12
37 2 4
37 3 3
37 4 2
37 5 10
37 6 13
37 7 7
37 8 6
37 9 2
37 10 6
37 11 1
37 12 2
37 13 6
37 14 1
37 15 9
37 16 6
37 17 1
37 18 8
37 19 6
37 20 8
37 21 5
37 22 6
37 23 12
37 24 7
37 25 5
37 26 11
37 27 2
37 28 6
37 29 1
37 30 5
37 31 8
37 32 11
37 33 1
37 34 5
37 35 2
37 36 10
38 0 7
38 1 11
38 2 6
38 3 10
38 4 3
38 5 12
38 6 1
38 7 3
38 8 10
38 9 8
38 10 3
38 11 7
38 12 3
38 13 9
38 14 9
38 15 8
38 16 13
38 17 10
38 18 1
38 19 7
38 20 5
38 21 7
38 22 9
38 23 3
38 24 5
38 25 4
38 26 11
38 27 9
38 28 8
38 29 1
38 30 6
38 31 12
38 32 8
38 33 1
38 34 2
38 35 12
38 36 3
38 37 6
39 0 10
39 1 8
39 2 1
39 3 9
39 4 2
39 5 6
39 6 4
39 7 1
39 8 6
39 9 7
39 10 7
39 11 2
39 12 4
39 13 5
39 14 2
39 15 8
39 16 5
39 17 10
39 18 8
39 19 3
39 20 7
39 21 1
39 22 9
39 23 13
39 24 3
39 25 11
39 26 12
39 27 1
39 28 6
39 29 7
39 30 10
39 31 4
39 32 3
39 33 7
39 34 13
39 35 6
39 36 5
39 37 3
39 38 4
40 0 9
40 1 5
40 2 7
40 3 5
40 4 2
40 5 3
40 6 13
40 7 3
40 8 8
40 9 1
40 10 4
40 11 2
40 12 8
40 13 8
40 14 1
40 15 8
40 16 13
40 17 5
40 18 6
40 19 4
40 20 7
40 21 9
40 22 4
40 23 9
40 24 9
40 25 10
40 26 2
40 27 6
40 28 4
40 29 12
40 30 1
40 31 6
40 32 12
40 33 5
40 34 13
40 35 10
40 36 11
40 37 12
40 38 3
40 39 4
41 0 5
41 1 2
41 2 11
41 3 8
41 4 8
41 5 6
41 6 3
41 7 2
41 8 7
41 9 9
41 10 7
41 11 4
41 12 7
41 13 6
41 14 6
41 15 4
41 16 11
41 17 8
41 18 13
41 19 10
41 20 1
41 21 10
41 22 10
41 23 6
41 24 13
41 25 10
41 26 3
41 27 7
41 28 1
41 29 9
41 30 3
41 31 10
41 32 13
41 33 7
41 34 7
41 35 12
41 36 4
41 37 13
41 38 11
41 39 5
41 40 5
42 0 8
42 1 10
42 2 3
42 3 6
42 4 9
42 5 7
42 6 3
42 7 4
42 8 1
42 9 11
42 10 6
42 11 1
42 12 2
42 13 13
42 14 5
42 15 8
42 16 2
42 17 12
42 18 6
42 19 5
42 20 5
42 21 3
42 22 3
42 23 12
42 24 8
42 25 4
42 26 3
42 27 4
42 28 11
42 29 7
42 30 12
42 31 10
42 32 8
42 33 11
42 34 4
42 35 1
42 36 8
42 37 10
42 38 8
42 39 3
42 40 9
42 41 10
43 0 5
43 1 5
43 2 4
43 3 3
43 4 13
43 5 5
43 6 4
43 7 9
43 8 2
43 9 7
43 10 10
43 11 10
43 12 11
43 13 12
43 14 9
43 15 6
43 16 1
43 17 2
43 18 3
43 19 10
43 20 13
43 21 4
43 22 13
43 23 13
43 24 6
43 25 9
43 26 11
43 27 6
43 28 3
43 29 5
43 30 13
43 31 1
43 32 10
43 33 5
43 34 7
43 35 11
43 36 2
43 37 7
43 38 10
43 39 8
43 40 1
43 41 8
43 42 9
44 0 6
44 1 3
44 2 4
44 3 7
44 4 13
44 5 5
44 6 2
44 7 12
44 8 7
44 9 13
44 10 5
44 11 11
44 12 13
44 13 8
44 14 10
44 15 6
44 16 12
44 17 2
44 18 4
44 19 9
44 20 5
44 21 3
44 22 3
44 23 8
44 24 13
44 25 8
44 26 3
44 27 4
44 28 7
44 29 7
44 30 11
44 31 11
44 32 8
44 33 8
44 34 6
44 35 8
44 36 6
44 37 7
44 38 8
44 39 8
44 40 5
44 41 2
44 42 9
44 43 4
45 0 1
45 1 8
45 2 11
45 3 12
45 4 8
45 5 1
45 6 1
45 7 12
45 8 11
45 9 11
45 10 6
45 11 2
45 12 1
45 13 7
45 14 3
45 15 1
45 16 2
45 17 11
45 18 9
45 19 9
45 20 4
45 21 9
45 22 9
45 23 1
45 24 1
45 25 4
45 26 5
45 27 6
45 28 12
45 29 2
45 30 9
45 31 8
45 32 11
45 33 3
45 34 3
45 35 5
45 36 13
45 37 4
45 38 8
45 39 10
45 40 12
45 41 2
45 42 8
45 43 4
45 44 1
46 0 7
46 1 5
46 2 11
46 3 12
46 4 3
46 5 13
46 6 13
46 7 7
46 8 11
46 9 4
46 10 1
46 11 7
46 12 11
46 13 9
46 14 8
46 15 13
46 16 4
46 17 4
46 18 11
46 19 8
46 20 3
46 21 6
46 22 4
46 23 9
46 24 9
46 25 5
46 26 10
46 27 5
46 28 2
46 29 7
46 30 5
46 31 4
46 32 2
46 33 3
46 34 13
46 35 13
46 36 1
46 37 10
46 38 5
46 39 2
46 40 12
46 41 6
46 42 2
46 43 8
46 44 2
46 45 4
47 0 10
47 1 9
47 2 7
47 3 2
47 4 2
47 5 2
47 6 5
47 7 3
47 8 9
47 9 5
47 10 11
47 11 11
47 12 9
47 13 10
47 14 5
47 15 1
47 16 12
47 17 12
47 18 3
47 19 5
47 20 3
47 21 7
47 22 7
47 23 7
47 24 8
47 25 12
47 26 9
47 27 9
47 28 1
47 29 6
47 30 4
47 31 5
47 32 10
47 33 7
47 34 5
47 35 6
47 36 11
47 37 1
47 38 6
47 39 1
47 40 3
47 41 1
47 42 12
47 43 2
47 44 8
47 45 9
47 46 11
48 0 10
48 1 12
48 2 4
48 3 8
48 4 2
48 5 1
48 6 6
48 7 1
48 8 2
48 9 6
48 10 8
48 11 6
48 12 3
48 13 2
48 14 3
48 15 3
48 16 8
48 17 13
48 18 3
48 19 4
48 20 5
48 21 2
48 22 5
48 23 5
48 24 13
48 25 2
48 26 11
48 27 12
48 28 4
48 29 2
48 30 11
48 31 3
48 32 11
48 33 9
48 34 9
48 35 8
48 36 1
48 37 7
48 38 8
48 39 13
48 40 10
48 41 11
48 42 11
48 43 1
48 44 8
48 45 9
48 46 8
48 47 6
49 0 2
49 1 11
49 2 11
49 3 3
49 4 7
49 5 9
49 6 12
49 7 3
49 8 11
49 9 5
49 10 1
49 11 6
49 12 2
49 13 13
49 14 11
49 15 12
49 16 5
49 17 12
49 18 8
49 19 6
49 20 7
49 21 4
49 22 12
49 23 13
49 24 2
49 25 13
49 26 4
49 27 7
49 28 7
49 29 11
49 30 6
49 31 1
49 32 13
49 33 8
49 34 12
49 35 12
49 36 7
49 37 2
49 38 1
49 39 12
49 40 1
49 41 6
49 42 6
49 43 11
49 44 8
49 45 8
49 46 6
49 47 10
49 48 5
50 0 10
50 1 9
50 2 13
50 3 1
50 4 10
50 5 1
50 6 9
50 7 6
50 8 1
50 9 10
50 10 4
50 11 10
50 12 12
50 13 2
50 14 10
50 15 6
50 16 8
50 17 6
50 18 13
50 19 8
50 20 3
50 21 2
50 22 13
50 23 12
50 24 9
50 25 12
50 26 6
50 27 3
50 28 9
50 29 9
50 30 4
50 31 7
50 32 12
50 33 11
50 34 1
50 35 2
50 36 13
50 37 12
50 38 13
50 39 3
50 40 8
50 41 2
50 42 10
50 43 5
50 44 12
50 45 2
50 46 13
50 47 9
50 48 12
50 49 10
51 0 11
51 1 12
51 2 2
51 3 2
51 4 11
51 5 4
51 6 1
51 7 10
51 8 4
51 9 10
51 10 5
51 11 7
51 12 12
51 13 9
51 14 4
51 15 13
51 16 2
51 17 6
51 18 11
51 19 4
51 20 1
51 21 12
51 22 5
51 23 2
51 24 3
51 25 7
51 26 13
51 27 11
51 28 1
51 29 4
51 30 13
51 31 9
51 32 10
51 33 5
51 34 2
51 35 11
51 36 3
51 37 3
51 38 4
51 39 9
51 40 3
51 41 12
51 42 8
51 43 3
51 44 9
51 45 5
51 46 9
51 47 9
51 48 10
51 49 8
51 50 12
52 0 1
52 1 4
52 2 1
52 3 6
52 4 1
52 5 8
52 6 9
52 7 4
52 8 6
52 9 10
52 10 11
52 11 11
52 12 8
52 13 11
52 14 1
52 15 13
52 16 12
52 17 1
52 18 1
52 19 1
52 20 9
52 21 1
52 22 5
52 23 8
52 24 3
52 25 5
52 26 4
52 27 3
52 28 3
52 29 2
52 30 9
52 31 9
52 32 5
52 33 4
52 34 4
52 35 1
52 36 11
52 37 2
52 38 10
52 39 1
52 40 3
52 41 11
52 42 5
52 43 13
52 44 7
52 45 2
52 46 9
52 47 7
52 48 11
52 49 11
52 50 8
52 51 8
53 0 4
53 1 7
53 2 10
53 3 4
53 4 3
53 5 9
53 6 13
53 7 7
53 8 10
53 9 9
53 10 9
53 11 5
53 12 1
53 13 12
53 14 4
53 15 1
53 16 1
53 17 8
53 18 9
53 19 8
53 20 7
53 21 12
53 22 13
53 23 11
53 24 12
53 25 9
53 26 1
53 27 3
53 28 12
53 29 13
53 30 12
53 31 4
53 32 6
53 33 5
53 34 2
53 35 1
53 36 3
53 37 12
53 38 3
53 39 3
53 40 4
53 41 8
53 42 1
53 43 1
53 44 9
53 45 8
53 46 1
53 47 5
53 48 5
53 49 12
53 50 2
53 51 6
53 52 7
54 0 3
54 1 4
54 2 11
54 3 11
54 4 6
54 5 11
54 6 8
54 7 8
54 8 7
54 9 9
54 10 2
54 11 10
54 12 2
54 13 5
54 14 4
54 15 7
54 16 8
54 17 6
54 18 1
54 19 9
54 20 13
54 21 2
54 22 12
54 23 8
54 24 13
54 25 10
54 26 7
54 27 8
54 28 2
54 29 10
54 30 1
54 31 10
54 32 2
54 33 12
54 34 12
54 35 2
54 36 5
54 37 12
54 38 12
54 39 1
54 40 12
54 41 12
54 42 5
54 43 12
54 44 9
54 45 8
54 46 8
54 47 9
54 48 10
54 49 11
54 50 13
54 51 11
54 52 4
54 53 1
55 0 11
55 1 7
55 2 2
55 3 7
55 4 6
55 5 11
55 6 2
55 7 13
55 8 5
55 9 8
55 10 12
55 11 3
55 12 11
55 13 3
55 14 7
55 15 13
55 16 10
55 17 9
55 18 11
55 19 13
55 20 12
55 21 8
55 22 7
55 23 13
55 24 8
55 25 11
55 26 9
55 27 12
55 28 4
55 29 4
55 30 9
55 31 11
55 32 10
55 33 6
55 34 7
55 35 3
55 36 7
55 37 11
55 38 12
55 39 5
55 40 4
55 41 11
55 42 6
55 43 8
55 44 11
55 45 3
55 46 13
55 47 3
55 48 1
55 49 8
55 50 8
55 51 3
55 52 10
55 53 12
55 54 8
56 0 4
56 1 8
56 2 3
56 3 5
56 4 1
56 5 1
56 6 11
56 7 8
56 8 2
56 9 8
56 10 8
56 11 2
56 12 6
56 13 8
56 14 3
56 15 8
56 16 4
56 17 3
56 18 2
56 19 1
56 20 3
56 21 5
56 22 13
56 23 13
56 24 4
56 25 6
56 26 4
56 27 12
56 28 13
56 29 12
56 30 8
56 31 11
56 32 13
56 33 8
56 34 11
56 35 13
56 36 5
56 37 5
56 38 1
56 39 8
56 40 9
56 41 4
56 42 6
56 43 6
56 44 9
56 45 1
56 46 5
56 47 5
56 48 4
56 49 8
56 50 8
56 51 10
56 52 3
56 53 1
56 54 2
56 55 11
57 0 9
57 1 1
57 2 1
57 3 12
57 4 8
57 5 6
57 6 13
57 7 4
57 8 5
57 9 5
57 10 11
57 11 8
57 12 6
57 13 12
57 14 12
57 15 5
57 16 11
57 17 12
57 18 1
57 19 6
57 20 4
57 21 12
57 22 11
57 23 10
57 24 10
57 25 6
57 26 5
57 27 8
57 28 11
57 29 12
57 30 3
57 31 1
57 32 6
57 33 8
57 34 7
57 35 7
57 36 10
57 37 7
57 38 4
57 39 2
57 40 8
57 41 10
57 42 2
57 43 5
57 44 11
57 45 3
57 46 11
57 47 8
57 48 5
57 49 8
57 50 9
57 51 10
57 52 5
57 53 9
57 54 11
57 55 4
57 56 5
58 0 11
58 1 1
58 2 12
58 3 3
58 4 5
58 5 5
58 6 5
58 7 6
58 8 3
58 9 4
58 10 12
58 11 1
58 12 5
58 13 1
58 14 12
58 15 6
58 16 2
58 17 13
58 18 8
58 19 10
58 20 10
58 21 1
58 22 7
58 23 8
58 24 6
58 25 12
58 26 6
58 27 1
58 28 8
58 29 10
58 30 9
58 31 8
58 32 7
58 33 4
58 34 12
58 35 8
58 36 2
58 37 10
58 38 9
58 39 2
58 40 13
58 41 5
58 42 3
58 43 6
58 44 5
58 45 12
58 46 3
58 47 12
58 48 1
58 49 5
58 50 9
58 51 5
58 52 10
58 53 4
58 54 4
58 55 1
58 56 12
58 57 13
59 0 4
59 1 5
59 2 7
59 3 13
59 4 2
59 5 7
59 6 5
59 7 5
59 8 2
59 9 3
59 10 5
59 11 5
59 12 2
59 13 10
59 14 6
59 15 7
59 16 13
59 17 13
59 18 2
59 19 2
59 20 13
59 21 6
59 22 10
59 23 8
59 24 1
59 25 6
59 26 9
59 27 12
59 28 9
59 29 3
59 30 7
59 31 7
59 32 10
59 33 5
59 34 12
59 35 11
59 36 12
59 37 11
59 38 12
59 39 9
59 40 1
59 41 7
59 42 10
59 43 3
59 44 4
59 45 8
59 46 11
59 47 5
59 48 6
59 49 13
59 50 4
59 51 12
59 52 7
59 53 12
59 54 8
59 55 13
59 56 5
59 57 12
59 58 7
60 0 1
60 1 5
60 2 9
60 3 2
60 4 7
60 5 13
60 6 1
60 7 1
60 8 9
60 9 8
60 10 13
60 11 1
60 12 1
60 13 7
60 14 2
60 15 4
60 16 2
60 17 11
60 18 6
60 19 3
60 20 3
60 21 8
60 22 1
60 23 13
60 24 13
60 25 5
60 26 10
60 27 13
60 28 1
60 29 9
60 30 4
60 31 9
60 32 7
60 33 10
60 34 13
60 35 9
60 36 11
60 37 11
60 38 6
60 39 13
60 40 3
60 41 5
60 42 2
60 43 4
60 44 10
60 45 8
60 46 8
60 47 9
60 48 1
60 49 1
60 50 2
60 51 4
60 52 3
60 53 2
60 54 3
60 55 5
60 56 4
60 57 7
60 58 9
60 59 1
61 0 6
61 1 13
61 2 5
61 3 4
61 4 12
61 5 4
61 6 2
61 7 7
61 8 7
61 9 9
61 10 9
61 11 6
61 12 1
61 13 6
61 14 2
61 15 6
61 16 8
61 17 7
61 18 1
61 19 13
61 20 10
61 21 6
61 22 4
61 23 10
61 24 4
61 25 6
61 26 6
61 27 1
61 28 6
61 29 2
61 30 3
61 31 4
61 32 3
61 33 9
61 34 8
61 35 9
61 36 7
61 37 13
61 38 13
61 39 3
61 40 7
61 41 2
61 42 2
61 43 13
61 44 1
61 45 9
61 46 10
61 47 3
61 48 10
61 49 10
61 50 6
61 51 12
61 52 3
61 53 12
61 54 8
61 55 13
61 56 2
61 57 12
61 58 9
61 59 12
61 60 3
62 0 2
62 1 1
62 2 1
62 3 4
62 4 8
62 5 10
62 6 3
62 7 7
62 8 5
62 9 9
62 10 9
62 11 2
62 12 3
62 13 12
62 14 2
62 15 2
62 16 4
62 17 5
62 18 8
62 19 12
62 20 4
62 21 4
62 22 10
62 23 7
62 24 11
62 25 8
62 26 2
62 27 10
62 28 7
62 29 8
62 30 3
62 31 13
62 32 9
62 33 13
62 34 1
62 35 3
62 36 9
62 37 3
62 38 5
62 39 13
62 40 4
62 41 7
62 42 4
62 43 8
62 44 12
62 45 11
62 46 2
62 47 11
62 48 13
62 49 8
62 50 6
62 51 5
62 52 5
62 53 3
62 54 7
62 55 11
62 56 3
62 57 11
62 58 6
62 59 7
62 60 4
62 61 11
63 0 7
63 1 7
63 2 6
63 3 11
63 4 11
63 5 10
63 6 5
63 7 12
63 8 11
63 9 10
63 10 13
63 11 3
63 12 10
63 13 8
63 14 3
63 15 4
63 16 3
63 17 6
63 18 12
63 19 7
63 20 2
63 21 12
63 22 6
63 23 6
63 24 10
63 25 3
63 26 4
63 27 11
63 28 13
63 29 2
63 30 13
63 31 2
63 32 12
63 33 4
63 34 8
63 35 9
63 36 6
63 37 12
63 38 7
63 39 6
63 40 6
63 41 7
63 42 7
63 43 8
63 44 3
63 45 11
63 46 11
63 47 7
63 48 7
63 49 11
63 50 10
63 51 6
63 52 10
63 53 1
63 54 8
63 55 2
63 56 10
63 57 4
63 58 2
63 59 4
63 60 8
63 61 3
63 62 5
64 0 2
64 1 13
64 2 1
64 3 13
64 4 9
64 5 11
64 6 2
64 7 4
64 8 11
64 9 2
64 10 2
64 11 5
64 12 1
64 13 4
64 14 6
64 15 6
64 16 7
64 17 2
64 18 3
64 19 12
64 20 5
64 21 2
64 22 12
64 23 5
64 24 4
64 25 8
64 26 8
64 27 2
64 28 11
64 29 6
64 30 4
64 31 2
64 32 5
64 33 8
64 34 7
64 35 11
64 36 4
64 37 5
64 38 5
64 39 5
64 40 13
64 41 3
64 42 4
64 43 6
64 44 12
64 45 1
64 46 7
64 47 11
64 48 13
64 49 4
64 50 13
64 51 4
64 52 7
64 53 12
64 54 1
64 55 8
64 56 13
64 57 13
64 58 3
64 59 6
64 60 5
64 61 5
64 62 1
64 63 13
65 0 9
65 1 4
65 2 8
65 3 3
65 4 4
65 5 9
65 6 11
65 7 13
65 8 4
65 9 4
65 10 9
65 11 6
65 12 3
65 13 2
65 14 13
65 15 9
65 16 6
65 17 1
65 18 1
65 19 4
65 20 12
65 21 5
65 22 3
65 23 11
65 24 12
65 25 8
65 26 13
65 27 10
65 28 9
65 29 7
65 30 4
65 31 8
65 32 10
65 33 3
65 34 3
65 35 8
65 36 5
65 37 8
65 38 3
65 39 11
65 40 1
65 41 3
65 42 12
65 43 11
65 44 4
65 45 11
65 46 7
65 47 8
65 48 4
65 49 9
65 50 11
65 51 2
65 52 10
65 53 10
65 54 4
65 55 12
65 56 2
65 57 9
65 58 8
65 59 7
65 60 1
65 61 1
65 62 10
65 63 10
65 64 7
66 0 12
66 1 8
66 2 4
66 3 1
66 4 6
66 5 11
66 6 2
66 7 3
66 8 1
66 9 12
66 10 5
66 11 1
66 12 11
66 13 10
66 14 6
66 15 12
66 16 5
66 17 11
66 18 9
66 19 4
66 20 1
66 21 5
66 22 5
66 23 5
66 24 8
66 25 9
66 26 11
66 27 10
66 28 13
66 29 7
66 30 3
66 31 1
66 32 8
66 33 2
66 34 3
66 35 10
66 36 10
66 37 7
66 38 11
66 39 6
66 40 7
66 41 6
66 42 13
66 43 8
66 44 8
66 45 3
66 46 1
66 47 6
66 48 9
66 49 5
66 50 7
66 51 12
66 52 3
66 53 2
66 54 7
66 55 11
66 56 5
66 57 6
66 58 7
66 59 6
66 60 12
66 61 10
66 62 12
66 63 8
66 64 3
66 65 8
